language Essence 1.3

letting bot_end be [23, 302, 235, 81, 305, 246, 154, 257, 43, 244, 247, 14, 56, 21; int(1..14)]
letting bot_start be [303, 62, 78, 249, 91, 106, 288, 119, 215, 50, 5, 186, 285, 277; int(1..14)]
letting buffer_col be 2
letting buffer_row be 2
letting corridor_size be 1
letting n_shelves_col be 1
letting n_shelves_row be 20
letting shelf_col_size be 2
letting shelf_row_size be 1
